;; Preprocessed for Astral solver
(set-info :status unsat)
;; variables
(declare-const x0 Loc)
(declare-const x1 Loc)
(declare-const x2 Loc)
(declare-const x3 Loc)
(declare-const x4 Loc)
(declare-const x5 Loc)
(declare-const x6 Loc)
(declare-const x7 Loc)
(declare-const x8 Loc)
(declare-const x9 Loc)
(declare-const x10 Loc)
(declare-const x11 Loc)
(declare-const x12 Loc)
(declare-const x13 Loc)
(declare-const x14 Loc)
(declare-const x15 Loc)
(declare-const x16 Loc)
(declare-const x17 Loc)
(declare-const x18 Loc)
(declare-const x19 Loc)
(declare-const x20 Loc)
(declare-const x21 Loc)

(assert 
		(sep 
			(= nil nil)
			(distinct x11 x16)
			(distinct x7 x9)
			(distinct x7 x15)
			(distinct x7 x14)
			(distinct x9 x10)
			(distinct x2 x11)
			(distinct x2 x3)
			(distinct x14 x17)
			(distinct x15 x17)
			(distinct x8 x9)
			(distinct x8 x17)
			(distinct x4 x11)
			(distinct x1 x11)
			(distinct x10 x13)
			(distinct x10 x15)
			(distinct x13 x15)
			(distinct x5 x17)
		(sep 
			(ls x5 x4 )
			(ls x5 x8 )
			(ls x13 x16 )
			(ls x16 x17 )
			(ls x16 x8 )
			(ls x1 x17 )
			(ls x4 x11 )
			(ls x8 x17 )
			(ls x17 x9 )
			(ls x2 x13 )
			(ls x2 x4 )
			(ls x12 x17 )
			(ls x9 x8 )
			(ls x11 x15 )
			(ls x6 x8 )
		)

		)

)

(check-sat)
